Welcome to the CBC MILP Solver 
Version: 2.10.3 
Build Date: Dec 15 2019 

command line - /home/cdmonsalvea/AI_OR_Workflow/.venv/lib/python3.10/site-packages/pulp/solverdir/cbc/linux/64/cbc /tmp/4b3c8614acbf46f2876f83fd85ef77a2-pulp.mps -sec 3600 -timeMode elapsed -branch -printingOptions all -solution /tmp/4b3c8614acbf46f2876f83fd85ef77a2-pulp.sol (default strategy 1)
At line 2 NAME          MODEL
At line 3 ROWS
At line 19 COLUMNS
At line 188 RHS
At line 203 BOUNDS
At line 211 ENDATA
Problem MODEL has 14 rows, 56 columns and 105 elements
Coin0008I MODEL read with 0 errors
seconds was changed from 1e+100 to 3600
Option for timeMode changed from cpu to elapsed
Continuous objective value is 770229 - 0.00 seconds
Cgl0004I processed model has 14 rows, 56 columns (7 integer (7 of which binary)) and 105 elements
Cbc0038I Initial state - 7 integers unsatisfied sum - 0.247566
Cbc0038I Pass   1: suminf.    0.24757 (1) obj. 6.20755e+08 iterations 6
Cbc0038I Solution found of 6.23096e+08
Cbc0038I Relaxing continuous gives 6.23096e+08
Cbc0038I Before mini branch and bound, 0 integers at bound fixed and 36 continuous
Cbc0038I Full problem 14 rows 56 columns, reduced to 13 rows 18 columns
Cbc0038I Mini branch and bound improved solution from 6.23096e+08 to 1.87265e+07 (0.00 seconds)
Cbc0038I Round again with cutoff of 1.69309e+07
Cbc0038I Pass   2: suminf.    0.24757 (3) obj. 1.69309e+07 iterations 5
Cbc0038I Pass   3: suminf.    0.06372 (3) obj. 1.69309e+07 iterations 7
Cbc0038I Pass   4: suminf.    0.44191 (2) obj. 1.69309e+07 iterations 7
Cbc0038I Pass   5: suminf.    0.00721 (1) obj. 1.69309e+07 iterations 2
Cbc0038I Pass   6: suminf.    0.12299 (3) obj. 1.69309e+07 iterations 4
Cbc0038I Pass   7: suminf.    0.44191 (2) obj. 1.69309e+07 iterations 3
Cbc0038I Pass   8: suminf.    0.00000 (0) obj. 1.69309e+07 iterations 3
Cbc0038I Solution found of 1.69309e+07
Cbc0038I Relaxing continuous gives 1.62505e+07
Cbc0038I Before mini branch and bound, 0 integers at bound fixed and 32 continuous
Cbc0038I Full problem 14 rows 56 columns, reduced to 14 rows 24 columns
Cbc0038I Mini branch and bound improved solution from 1.62505e+07 to 1.58403e+07 (0.01 seconds)
Cbc0038I Round again with cutoff of 1.28263e+07
Cbc0038I Pass   9: suminf.    0.24757 (4) obj. 1.28263e+07 iterations 2
Cbc0038I Pass  10: suminf.    0.28151 (4) obj. 1.28263e+07 iterations 7
Cbc0038I Pass  11: suminf.    0.12260 (3) obj. 1.28263e+07 iterations 4
Cbc0038I Pass  12: suminf.    0.01301 (2) obj. 1.28263e+07 iterations 2
Cbc0038I Pass  13: suminf.    0.12260 (3) obj. 1.28263e+07 iterations 2
Cbc0038I Pass  14: suminf.    0.20206 (3) obj. 1.28263e+07 iterations 5
Cbc0038I Pass  15: suminf.    0.12260 (3) obj. 1.28263e+07 iterations 3
Cbc0038I Pass  16: suminf.    0.01301 (2) obj. 1.28263e+07 iterations 2
Cbc0038I Pass  17: suminf.    0.12260 (3) obj. 1.28263e+07 iterations 2
Cbc0038I Pass  18: suminf.    0.01301 (2) obj. 1.28263e+07 iterations 2
Cbc0038I Pass  19: suminf.    0.00108 (1) obj. 1.28263e+07 iterations 3
Cbc0038I Pass  20: suminf.    0.00649 (2) obj. 1.28263e+07 iterations 4
Cbc0038I Pass  21: suminf.    0.12260 (3) obj. 1.28263e+07 iterations 3
Cbc0038I Pass  22: suminf.    0.01301 (2) obj. 1.28263e+07 iterations 2
Cbc0038I Pass  23: suminf.    0.12260 (3) obj. 1.28263e+07 iterations 2
Cbc0038I Pass  24: suminf.    0.12260 (3) obj. 1.28263e+07 iterations 3
Cbc0038I Pass  25: suminf.    0.01321 (3) obj. 1.28263e+07 iterations 1
Cbc0038I Pass  26: suminf.    0.12260 (3) obj. 1.28263e+07 iterations 2
Cbc0038I Pass  27: suminf.    0.01337 (3) obj. 1.28263e+07 iterations 1
Cbc0038I Pass  28: suminf.    0.12260 (3) obj. 1.28263e+07 iterations 2
Cbc0038I Pass  29: suminf.    0.01301 (2) obj. 1.28263e+07 iterations 2
Cbc0038I Pass  30: suminf.    0.12260 (3) obj. 1.28263e+07 iterations 2
Cbc0038I Pass  31: suminf.    0.29567 (4) obj. 1.28263e+07 iterations 4
Cbc0038I Pass  32: suminf.    0.29567 (4) obj. 1.28263e+07 iterations 0
Cbc0038I Pass  33: suminf.    0.29567 (4) obj. 1.28263e+07 iterations 0
Cbc0038I Pass  34: suminf.    0.29567 (4) obj. 1.28263e+07 iterations 0
Cbc0038I Pass  35: suminf.    0.29567 (4) obj. 1.28263e+07 iterations 0
Cbc0038I Pass  36: suminf.    0.29567 (4) obj. 1.28263e+07 iterations 0
Cbc0038I Pass  37: suminf.    0.29567 (4) obj. 1.28263e+07 iterations 0
Cbc0038I Pass  38: suminf.    0.29567 (4) obj. 1.28263e+07 iterations 0
Cbc0038I No solution found this major pass
Cbc0038I Before mini branch and bound, 0 integers at bound fixed and 34 continuous
Cbc0038I Full problem 14 rows 56 columns, reduced to 12 rows 20 columns
Cbc0038I Mini branch and bound improved solution from 1.58403e+07 to 1.30788e+07 (0.01 seconds)
Cbc0038I Round again with cutoff of 9.20945e+06
Cbc0038I Pass  38: suminf.    0.24757 (7) obj. 9.20945e+06 iterations 3
Cbc0038I Pass  39: suminf.    0.10556 (5) obj. 9.20945e+06 iterations 4
Cbc0038I Pass  40: suminf.    0.10556 (5) obj. 9.20945e+06 iterations 0
Cbc0038I Pass  41: suminf.    0.10876 (5) obj. 9.20945e+06 iterations 1
Cbc0038I Pass  42: suminf.    0.10876 (5) obj. 9.20945e+06 iterations 0
Cbc0038I Pass  43: suminf.    0.10556 (5) obj. 9.20945e+06 iterations 1
Cbc0038I Pass  44: suminf.    0.10355 (5) obj. 9.20945e+06 iterations 2
Cbc0038I Pass  45: suminf.    0.10355 (5) obj. 9.20945e+06 iterations 0
Cbc0038I Pass  46: suminf.    0.10556 (5) obj. 9.20945e+06 iterations 2
Cbc0038I Pass  47: suminf.    0.10556 (5) obj. 9.20945e+06 iterations 0
Cbc0038I Pass  48: suminf.    0.10876 (5) obj. 9.20945e+06 iterations 1
Cbc0038I Pass  49: suminf.    0.10876 (5) obj. 9.20945e+06 iterations 0
Cbc0038I Pass  50: suminf.    0.10556 (5) obj. 9.20945e+06 iterations 1
Cbc0038I Pass  51: suminf.    0.20941 (3) obj. 9.20945e+06 iterations 5
Cbc0038I Pass  52: suminf.    0.10556 (5) obj. 9.20945e+06 iterations 6
Cbc0038I Pass  53: suminf.    0.10556 (5) obj. 9.20945e+06 iterations 0
Cbc0038I Pass  54: suminf.    0.10876 (5) obj. 9.20945e+06 iterations 1
Cbc0038I Pass  55: suminf.    0.10876 (5) obj. 9.20945e+06 iterations 0
Cbc0038I Pass  56: suminf.    0.10556 (5) obj. 9.20945e+06 iterations 1
Cbc0038I Pass  57: suminf.    0.10556 (5) obj. 9.20945e+06 iterations 0
Cbc0038I Pass  58: suminf.    0.10556 (5) obj. 9.20945e+06 iterations 0
Cbc0038I Pass  59: suminf.    0.10556 (5) obj. 9.20945e+06 iterations 0
Cbc0038I Pass  60: suminf.    0.22000 (4) obj. 9.20945e+06 iterations 8
Cbc0038I Pass  61: suminf.    0.10556 (5) obj. 9.20945e+06 iterations 5
Cbc0038I Pass  62: suminf.    0.10556 (5) obj. 9.20945e+06 iterations 0
Cbc0038I Pass  63: suminf.    0.10876 (5) obj. 9.20945e+06 iterations 1
Cbc0038I Pass  64: suminf.    0.10876 (5) obj. 9.20945e+06 iterations 0
Cbc0038I Pass  65: suminf.    0.10556 (5) obj. 9.20945e+06 iterations 1
Cbc0038I Pass  66: suminf.    0.02077 (3) obj. 9.20945e+06 iterations 4
Cbc0038I Pass  67: suminf.    0.10556 (5) obj. 9.20945e+06 iterations 6
Cbc0038I No solution found this major pass
Cbc0038I Before mini branch and bound, 0 integers at bound fixed and 35 continuous
Cbc0038I Full problem 14 rows 56 columns, reduced to 12 rows 19 columns
Cbc0038I Mini branch and bound did not improve solution (0.01 seconds)
Cbc0038I After 0.01 seconds - Feasibility pump exiting with objective of 1.30788e+07 - took 0.01 seconds
Cbc0012I Integer solution of 13078788 found by feasibility pump after 0 iterations and 0 nodes (0.01 seconds)
Cbc0031I 13 added rows had average density of 9.1538462
Cbc0013I At root node, 23 cuts changed objective from 770228.51 to 13078788 in 4 passes
Cbc0014I Cut generator 0 (Probing) - 11 row cuts average 2.0 elements, 1 column cuts (1 active)  in 0.001 seconds - new frequency is 1
Cbc0014I Cut generator 1 (Gomory) - 15 row cuts average 10.8 elements, 0 column cuts (0 active)  in 0.000 seconds - new frequency is 1
Cbc0014I Cut generator 2 (Knapsack) - 0 row cuts average 0.0 elements, 0 column cuts (0 active)  in 0.000 seconds - new frequency is -100
Cbc0014I Cut generator 3 (Clique) - 0 row cuts average 0.0 elements, 0 column cuts (0 active)  in 0.000 seconds - new frequency is -100
Cbc0014I Cut generator 4 (MixedIntegerRounding2) - 9 row cuts average 9.3 elements, 0 column cuts (0 active)  in 0.000 seconds - new frequency is 1
Cbc0014I Cut generator 5 (FlowCover) - 0 row cuts average 0.0 elements, 0 column cuts (0 active)  in 0.000 seconds - new frequency is -100
Cbc0014I Cut generator 6 (TwoMirCuts) - 15 row cuts average 10.8 elements, 0 column cuts (0 active)  in 0.000 seconds - new frequency is 1
Cbc0001I Search completed - best objective 13078788.34985513, took 30 iterations and 0 nodes (0.01 seconds)
Cbc0035I Maximum depth 0, 0 variables fixed on reduced cost
Cuts at root node changed objective from 770229 to 1.30788e+07
Probing was tried 4 times and created 12 cuts of which 0 were active after adding rounds of cuts (0.001 seconds)
Gomory was tried 4 times and created 15 cuts of which 0 were active after adding rounds of cuts (0.000 seconds)
Knapsack was tried 4 times and created 0 cuts of which 0 were active after adding rounds of cuts (0.000 seconds)
Clique was tried 4 times and created 0 cuts of which 0 were active after adding rounds of cuts (0.000 seconds)
MixedIntegerRounding2 was tried 4 times and created 9 cuts of which 0 were active after adding rounds of cuts (0.000 seconds)
FlowCover was tried 4 times and created 0 cuts of which 0 were active after adding rounds of cuts (0.000 seconds)
TwoMirCuts was tried 4 times and created 15 cuts of which 0 were active after adding rounds of cuts (0.000 seconds)
ZeroHalf was tried 1 times and created 0 cuts of which 0 were active after adding rounds of cuts (0.000 seconds)

Result - Optimal solution found

Objective value:                13078788.34985513
Enumerated nodes:               0
Total iterations:               30
Time (CPU seconds):             0.01
Time (Wallclock seconds):       0.01

Option for printingOptions changed from normal to all
Total time (CPU seconds):       0.01   (Wallclock seconds):       0.01

